unsat
( _c0
  _c10
  _c100
  _c10002
  _c10003
  _c10004
  _c10005
  _c10006
  _c10007
  _c10008
  _c10009
  _c10010
  _c10011
  _c10012
  _c10013
  _c10014
  _c10015
  _c10016
  _c10017
  _c10018
  _c10019
  _c10020
  _c10021
  _c10022
  _c10023
  _c10024
  _c10025
  _c10026
  _c10027
  _c10028
  _c10029
  _c10030
  _c10031
  _c10032
  _c10033
  _c10034
  _c10035
  _c10036
  _c10037
  _c10038
  _c10039
  _c10040
  _c10041
  _c10042
  _c10043
  _c10044
  _c10045
  _c10046
  _c10047
  _c10048
  _c10049
  _c10050
  _c10051
  _c10052
  _c10053
  _c10054
  _c10055
  _c10056
  _c10057
  _c10058
  _c10059
  _c10060
  _c10061
  _c10062
  _c10063
  _c10064
  _c10065
  _c10066
  _c10067
  _c10068
  _c10069
  _c10070
  _c10071
  _c10072
  _c10073
  _c10074
  _c10075
  _c10076
  _c10077
  _c10078
  _c10079
  _c10080
  _c10081
  _c10082
  _c10092
  _c10093
  _c10094
  _c10095
  _c10096
  _c10097
  _c10098
  _c10099
  _c101
  _c10101
  _c10102
  _c10103
  _c10104
  _c10105
  _c10106
  _c10107
  _c10109
  _c10110
  _c10111
  _c10112
  _c10113
  _c10114
  _c10115
  _c10117
  _c10118
  _c10119
  _c10120
  _c10121
  _c10122
  _c10123
  _c10125
  _c10126
  _c10127
  _c10128
  _c10129
  _c10130
  _c10131
  _c10133
  _c10134
  _c10135
  _c10136
  _c10137
  _c10138
  _c10139
  _c10141
  _c10142
  _c10143
  _c10144
  _c10145
  _c10146
  _c10147
  _c10149
  _c10150
  _c10151
  _c10152
  _c10153
  _c10154
  _c10155
  _c10157
  _c10158
  _c10159
  _c10160
  _c10161
  _c10162
  _c10163
  _c10182
  _c10183
  _c10184
  _c10185
  _c10186
  _c10187
  _c10188
  _c10191
  _c10192
  _c10193
  _c10194
  _c10195
  _c10196
  _c10199
  _c10200
  _c10202
  _c10203
  _c10204
  _c10207
  _c10208
  _c10209
  _c10210
  _c10211
  _c10212
  _c10215
  _c10216
  _c10217
  _c10218
  _c10219
  _c10220
  _c10223
  _c10224
  _c10225
  _c10226
  _c10227
  _c10228
  _c10231
  _c10232
  _c10233
  _c10234
  _c10235
  _c10236
  _c10239
  _c10240
  _c10241
  _c10242
  _c10243
  _c10244
  _c10272
  _c10273
  _c10274
  _c10275
  _c10276
  _c10277
  _c10281
  _c10282
  _c10283
  _c10284
  _c10285
  _c10289
  _c10290
  _c10291
  _c10292
  _c10293
  _c10297
  _c10298
  _c10299
  _c103
  _c10300
  _c10301
  _c10305
  _c10306
  _c10307
  _c10308
  _c10309
  _c10313
  _c10314
  _c10315
  _c10316
  _c10317
  _c10321
  _c10322
  _c10323
  _c10324
  _c10325
  _c10362
  _c10363
  _c10364
  _c10365
  _c10366
  _c10371
  _c10372
  _c10373
  _c10374
  _c10377
  _c10379
  _c10380
  _c10381
  _c10382
  _c10387
  _c10388
  _c10389
  _c10390
  _c10395
  _c10396
  _c10397
  _c10398
  _c104
  _c10403
  _c10404
  _c10405
  _c10406
  _c10452
  _c10453
  _c10454
  _c10455
  _c10461
  _c10462
  _c10463
  _c10469
  _c10470
  _c10471
  _c10477
  _c10479
  _c10485
  _c10486
  _c10487
  _c105
  _c10542
  _c10543
  _c10544
  _c10551
  _c10552
  _c10559
  _c10560
  _c10567
  _c10568
  _c106
  _c10615
  _c10632
  _c10633
  _c10641
  _c10649
  _c107
  _c10722
  _c108
  _c109
  _c110
  _c111
  _c113
  _c114
  _c115
  _c116
  _c118
  _c119
  _c11923
  _c11924
  _c11925
  _c11926
  _c11927
  _c11928
  _c11929
  _c11930
  _c11931
  _c11932
  _c12
  _c120
  _c12065
  _c12066
  _c12067
  _c12069
  _c12070
  _c12073
  _c12075
  _c12076
  _c12081
  _c12082
  _c12083
  _c12084
  _c12086
  _c12087
  _c12089
  _c12090
  _c12091
  _c12092
  _c12093
  _c12094
  _c12095
  _c12097
  _c12098
  _c12099
  _c121
  _c12100
  _c12101
  _c12102
  _c12103
  _c12104
  _c12105
  _c12106
  _c12108
  _c12109
  _c12110
  _c12111
  _c12112
  _c12113
  _c12115
  _c12116
  _c12117
  _c12119
  _c12120
  _c12121
  _c12122
  _c12123
  _c12124
  _c12125
  _c12126
  _c12127
  _c12128
  _c12130
  _c12131
  _c12132
  _c12133
  _c12134
  _c12135
  _c12136
  _c12137
  _c12138
  _c12139
  _c12141
  _c12142
  _c12143
  _c12144
  _c12145
  _c12146
  _c12147
  _c12148
  _c12149
  _c12150
  _c12152
  _c12153
  _c12154
  _c12155
  _c12156
  _c12157
  _c12158
  _c12159
  _c12160
  _c12161
  _c123
  _c124
  _c125
  _c12523
  _c12524
  _c12525
  _c12526
  _c12527
  _c12528
  _c12529
  _c12530
  _c12531
  _c12532
  _c126
  _c127
  _c128
  _c129
  _c13
  _c130
  _c131
  _c133
  _c134
  _c135
  _c136
  _c13664
  _c13675
  _c13686
  _c13697
  _c137
  _c13708
  _c13719
  _c13730
  _c13741
  _c13752
  _c13763
  _c138
  _c13874
  _c139
  _c14
  _c140
  _c141
  _c143
  _c144
  _c145
  _c146
  _c147
  _c148
  _c149
  _c14986
  _c14987
  _c14988
  _c14989
  _c14990
  _c14991
  _c14992
  _c14993
  _c14994
  _c14995
  _c14997
  _c14998
  _c14999
  _c15
  _c150
  _c15000
  _c15001
  _c15002
  _c15003
  _c15004
  _c15005
  _c15006
  _c15008
  _c15009
  _c15010
  _c15011
  _c15012
  _c15013
  _c15014
  _c15015
  _c15016
  _c15017
  _c15019
  _c15020
  _c15021
  _c15022
  _c15023
  _c15024
  _c15025
  _c15026
  _c15027
  _c15028
  _c15030
  _c15031
  _c15032
  _c15033
  _c15034
  _c15035
  _c15036
  _c15037
  _c15038
  _c15039
  _c15041
  _c15042
  _c15043
  _c15044
  _c15045
  _c15046
  _c15047
  _c15048
  _c15049
  _c15050
  _c15052
  _c15053
  _c15054
  _c15055
  _c15056
  _c15057
  _c15058
  _c15059
  _c15060
  _c15061
  _c15063
  _c15064
  _c15065
  _c15066
  _c15067
  _c15068
  _c15069
  _c15070
  _c15071
  _c15072
  _c15074
  _c15075
  _c15076
  _c15077
  _c15078
  _c15079
  _c15080
  _c15081
  _c15082
  _c15083
  _c151
  _c15136
  _c15138
  _c15139
  _c15140
  _c15141
  _c15142
  _c15143
  _c15144
  _c15145
  _c15146
  _c15147
  _c15148
  _c15149
  _c15150
  _c15151
  _c15152
  _c15153
  _c15154
  _c15155
  _c15156
  _c15157
  _c15158
  _c15159
  _c15160
  _c15161
  _c15162
  _c15163
  _c15164
  _c15165
  _c15166
  _c15167
  _c15168
  _c15169
  _c15170
  _c15171
  _c15172
  _c15173
  _c15174
  _c15175
  _c15176
  _c15177
  _c15178
  _c15179
  _c15180
  _c15181
  _c15182
  _c153
  _c154
  _c155
  _c156
  _c157
  _c158
  _c159
  _c16
  _c160
  _c161
  _c163
  _c164
  _c165
  _c166
  _c167
  _c168
  _c169
  _c17
  _c170
  _c171
  _c173
  _c174
  _c175
  _c176
  _c177
  _c178
  _c179
  _c18
  _c180
  _c181
  _c183
  _c184
  _c185
  _c186
  _c187
  _c188
  _c189
  _c19
  _c190
  _c191
  _c193
  _c194
  _c195
  _c196
  _c197
  _c198
  _c199
  _c2
  _c20
  _c200
  _c201
  _c202
  _c204
  _c205
  _c206
  _c207
  _c208
  _c209
  _c210
  _c211
  _c212
  _c214
  _c215
  _c216
  _c217
  _c218
  _c219
  _c22
  _c220
  _c221
  _c222
  _c224
  _c226
  _c227
  _c228
  _c229
  _c23
  _c230
  _c231
  _c232
  _c234
  _c235
  _c236
  _c237
  _c238
  _c239
  _c24
  _c240
  _c241
  _c242
  _c244
  _c245
  _c2452
  _c2453
  _c2454
  _c2455
  _c2456
  _c2457
  _c2458
  _c2459
  _c246
  _c2460
  _c2461
  _c247
  _c248
  _c249
  _c25
  _c250
  _c251
  _c252
  _c254
  _c255
  _c256
  _c257
  _c258
  _c259
  _c26
  _c260
  _c261
  _c262
  _c264
  _c265
  _c266
  _c267
  _c268
  _c269
  _c27
  _c270
  _c271
  _c272
  _c274
  _c275
  _c276
  _c277
  _c278
  _c279
  _c28
  _c280
  _c281
  _c282
  _c284
  _c285
  _c286
  _c287
  _c288
  _c289
  _c29
  _c290
  _c291
  _c292
  _c294
  _c295
  _c296
  _c297
  _c298
  _c299
  _c3
  _c30
  _c300
  _c301
  _c302
  _c303
  _c305
  _c306
  _c307
  _c308
  _c309
  _c310
  _c311
  _c312
  _c313
  _c315
  _c316
  _c317
  _c318
  _c319
  _c32
  _c320
  _c321
  _c322
  _c323
  _c325
  _c326
  _c327
  _c328
  _c329
  _c33
  _c330
  _c331
  _c332
  _c333
  _c335
  _c336
  _c337
  _c338
  _c339
  _c34
  _c340
  _c341
  _c342
  _c343
  _c345
  _c346
  _c347
  _c348
  _c349
  _c35
  _c350
  _c351
  _c352
  _c353
  _c355
  _c356
  _c357
  _c358
  _c359
  _c36
  _c360
  _c361
  _c362
  _c3623
  _c3624
  _c3625
  _c3626
  _c3627
  _c3628
  _c3629
  _c363
  _c3630
  _c3631
  _c3632
  _c3634
  _c3635
  _c3636
  _c3637
  _c3638
  _c3639
  _c3640
  _c3641
  _c3642
  _c3643
  _c3645
  _c3646
  _c3647
  _c3648
  _c3649
  _c365
  _c3650
  _c3651
  _c3652
  _c3653
  _c3654
  _c3656
  _c3657
  _c3658
  _c3659
  _c366
  _c3660
  _c3661
  _c3662
  _c3663
  _c3664
  _c3665
  _c3667
  _c3668
  _c3669
  _c367
  _c3670
  _c3671
  _c3672
  _c3673
  _c3674
  _c3675
  _c3676
  _c3678
  _c3679
  _c368
  _c3680
  _c3681
  _c3682
  _c3683
  _c3684
  _c3685
  _c3686
  _c3687
  _c3689
  _c369
  _c3690
  _c3691
  _c3692
  _c3693
  _c3694
  _c3695
  _c3696
  _c3697
  _c3698
  _c37
  _c370
  _c3700
  _c3701
  _c3702
  _c3703
  _c3704
  _c3705
  _c3706
  _c3707
  _c3708
  _c3709
  _c371
  _c3711
  _c3712
  _c3713
  _c3714
  _c3715
  _c3716
  _c3717
  _c3718
  _c3719
  _c372
  _c3720
  _c3722
  _c3723
  _c3724
  _c3725
  _c3726
  _c3727
  _c3728
  _c3729
  _c373
  _c3730
  _c3731
  _c375
  _c376
  _c377
  _c378
  _c379
  _c38
  _c380
  _c381
  _c382
  _c383
  _c385
  _c386
  _c3863
  _c3864
  _c3865
  _c3866
  _c3868
  _c387
  _c3871
  _c3872
  _c3874
  _c3875
  _c3876
  _c3877
  _c3878
  _c3879
  _c388
  _c3880
  _c3881
  _c3882
  _c3883
  _c3884
  _c3885
  _c3886
  _c3888
  _c3889
  _c389
  _c3890
  _c3891
  _c3892
  _c3893
  _c3894
  _c3895
  _c3896
  _c3897
  _c3898
  _c3899
  _c39
  _c390
  _c3900
  _c3901
  _c3902
  _c3903
  _c3904
  _c3905
  _c3906
  _c3907
  _c3908
  _c3909
  _c391
  _c3910
  _c3911
  _c3913
  _c3916
  _c3917
  _c3918
  _c3919
  _c392
  _c3920
  _c3921
  _c3922
  _c3923
  _c3924
  _c3925
  _c3926
  _c3927
  _c3928
  _c3929
  _c393
  _c3930
  _c3931
  _c3932
  _c3933
  _c3934
  _c3935
  _c3936
  _c3937
  _c3938
  _c3939
  _c3940
  _c3941
  _c3942
  _c3943
  _c3944
  _c3945
  _c3946
  _c3947
  _c3948
  _c3949
  _c395
  _c3950
  _c3951
  _c396
  _c397
  _c398
  _c399
  _c4
  _c40
  _c400
  _c401
  _c402
  _c403
  _c404
  _c406
  _c407
  _c408
  _c409
  _c410
  _c411
  _c412
  _c413
  _c414
  _c416
  _c417
  _c418
  _c419
  _c42
  _c420
  _c421
  _c422
  _c423
  _c424
  _c426
  _c427
  _c428
  _c429
  _c43
  _c430
  _c431
  _c432
  _c433
  _c434
  _c436
  _c437
  _c438
  _c439
  _c44
  _c440
  _c441
  _c442
  _c443
  _c444
  _c446
  _c447
  _c448
  _c449
  _c45
  _c450
  _c451
  _c452
  _c453
  _c454
  _c456
  _c457
  _c458
  _c459
  _c46
  _c460
  _c461
  _c462
  _c463
  _c464
  _c466
  _c467
  _c468
  _c469
  _c47
  _c470
  _c471
  _c472
  _c473
  _c474
  _c476
  _c477
  _c478
  _c479
  _c48
  _c480
  _c481
  _c482
  _c483
  _c484
  _c486
  _c487
  _c488
  _c489
  _c49
  _c490
  _c491
  _c492
  _c493
  _c494
  _c496
  _c497
  _c498
  _c499
  _c5
  _c50
  _c500
  _c501
  _c502
  _c503
  _c504
  _c505
  _c507
  _c508
  _c509
  _c510
  _c511
  _c512
  _c513
  _c514
  _c515
  _c517
  _c518
  _c519
  _c52
  _c520
  _c521
  _c5218
  _c522
  _c5229
  _c523
  _c524
  _c5240
  _c525
  _c527
  _c528
  _c529
  _c53
  _c530
  _c531
  _c532
  _c533
  _c534
  _c535
  _c537
  _c538
  _c539
  _c54
  _c540
  _c541
  _c542
  _c543
  _c544
  _c545
  _c547
  _c548
  _c549
  _c55
  _c550
  _c551
  _c552
  _c553
  _c554
  _c555
  _c557
  _c558
  _c559
  _c56
  _c560
  _c561
  _c562
  _c563
  _c564
  _c565
  _c567
  _c568
  _c569
  _c57
  _c570
  _c571
  _c572
  _c573
  _c574
  _c575
  _c577
  _c578
  _c579
  _c58
  _c580
  _c581
  _c582
  _c583
  _c584
  _c585
  _c587
  _c588
  _c589
  _c59
  _c590
  _c591
  _c592
  _c593
  _c594
  _c595
  _c597
  _c598
  _c599
  _c6
  _c60
  _c600
  _c601
  _c602
  _c603
  _c604
  _c605
  _c606
  _c608
  _c609
  _c610
  _c611
  _c612
  _c613
  _c614
  _c615
  _c616
  _c618
  _c619
  _c62
  _c620
  _c621
  _c622
  _c623
  _c624
  _c625
  _c626
  _c6262
  _c6263
  _c6265
  _c6266
  _c6267
  _c6268
  _c6269
  _c6270
  _c6271
  _c628
  _c629
  _c63
  _c630
  _c631
  _c632
  _c633
  _c634
  _c635
  _c636
  _c638
  _c639
  _c64
  _c640
  _c641
  _c642
  _c643
  _c644
  _c645
  _c646
  _c648
  _c649
  _c65
  _c650
  _c651
  _c652
  _c653
  _c654
  _c655
  _c656
  _c658
  _c659
  _c66
  _c660
  _c661
  _c662
  _c663
  _c664
  _c665
  _c666
  _c668
  _c669
  _c67
  _c670
  _c671
  _c672
  _c673
  _c674
  _c675
  _c676
  _c678
  _c679
  _c68
  _c680
  _c681
  _c682
  _c683
  _c684
  _c685
  _c686
  _c688
  _c689
  _c69
  _c690
  _c691
  _c692
  _c693
  _c694
  _c695
  _c696
  _c698
  _c699
  _c7
  _c70
  _c700
  _c701
  _c702
  _c703
  _c704
  _c705
  _c706
  _c707
  _c709
  _c710
  _c711
  _c712
  _c713
  _c714
  _c715
  _c716
  _c717
  _c719
  _c72
  _c720
  _c721
  _c722
  _c723
  _c724
  _c725
  _c726
  _c727
  _c7282
  _c7288
  _c7289
  _c729
  _c7290
  _c7298
  _c7299
  _c73
  _c730
  _c7300
  _c7301
  _c7302
  _c7303
  _c7304
  _c7305
  _c7306
  _c7307
  _c7308
  _c7309
  _c731
  _c7310
  _c7312
  _c7313
  _c7314
  _c7315
  _c7316
  _c7317
  _c7318
  _c7319
  _c732
  _c7322
  _c7323
  _c7324
  _c7325
  _c7326
  _c7327
  _c7328
  _c733
  _c7332
  _c7333
  _c7334
  _c7335
  _c7336
  _c7337
  _c734
  _c7342
  _c7343
  _c7344
  _c7346
  _c735
  _c7352
  _c7353
  _c736
  _c7362
  _c737
  _c7373
  _c7374
  _c7376
  _c7377
  _c7378
  _c7379
  _c7380
  _c7381
  _c7382
  _c7384
  _c7385
  _c7386
  _c7387
  _c7388
  _c7389
  _c739
  _c7390
  _c7391
  _c7392
  _c7393
  _c7395
  _c7396
  _c7397
  _c7398
  _c7399
  _c74
  _c740
  _c7401
  _c7402
  _c7403
  _c7404
  _c7406
  _c7407
  _c7408
  _c7409
  _c741
  _c7410
  _c7412
  _c7413
  _c7414
  _c7415
  _c7417
  _c7419
  _c742
  _c7420
  _c7422
  _c7423
  _c7424
  _c7425
  _c7426
  _c7428
  _c7429
  _c743
  _c7430
  _c7431
  _c7432
  _c7433
  _c7434
  _c7435
  _c7436
  _c7437
  _c7439
  _c744
  _c7440
  _c7441
  _c7442
  _c7443
  _c7444
  _c7445
  _c7446
  _c7447
  _c7448
  _c745
  _c7452
  _c7453
  _c7454
  _c7455
  _c7456
  _c7457
  _c7458
  _c7459
  _c746
  _c7462
  _c7463
  _c7464
  _c7465
  _c7466
  _c7467
  _c7468
  _c7469
  _c747
  _c7470
  _c749
  _c75
  _c750
  _c751
  _c752
  _c753
  _c754
  _c755
  _c756
  _c757
  _c759
  _c76
  _c760
  _c761
  _c7612
  _c7614
  _c7615
  _c7617
  _c7619
  _c762
  _c7622
  _c7624
  _c7626
  _c7627
  _c763
  _c7633
  _c7636
  _c7638
  _c764
  _c7643
  _c7644
  _c7645
  _c7646
  _c7647
  _c765
  _c7655
  _c766
  _c7662
  _c7663
  _c7664
  _c7665
  _c767
  _c769
  _c77
  _c770
  _c771
  _c772
  _c773
  _c774
  _c775
  _c776
  _c777
  _c778
  _c779
  _c78
  _c780
  _c781
  _c782
  _c783
  _c784
  _c785
  _c7852
  _c7853
  _c7854
  _c7855
  _c7856
  _c7857
  _c7858
  _c7859
  _c786
  _c7860
  _c7861
  _c787
  _c789
  _c79
  _c790
  _c791
  _c792
  _c793
  _c794
  _c795
  _c796
  _c797
  _c799
  _c8
  _c80
  _c800
  _c801
  _c802
  _c803
  _c804
  _c805
  _c806
  _c807
  _c808
  _c810
  _c811
  _c812
  _c813
  _c814
  _c815
  _c816
  _c817
  _c818
  _c82
  _c820
  _c821
  _c822
  _c823
  _c824
  _c825
  _c826
  _c827
  _c828
  _c83
  _c830
  _c831
  _c832
  _c833
  _c834
  _c835
  _c836
  _c837
  _c838
  _c84
  _c840
  _c841
  _c842
  _c843
  _c844
  _c845
  _c846
  _c847
  _c848
  _c85
  _c850
  _c851
  _c852
  _c853
  _c854
  _c855
  _c856
  _c857
  _c858
  _c86
  _c860
  _c861
  _c862
  _c863
  _c864
  _c865
  _c866
  _c867
  _c868
  _c87
  _c870
  _c871
  _c872
  _c873
  _c874
  _c875
  _c876
  _c877
  _c878
  _c88
  _c880
  _c881
  _c882
  _c883
  _c884
  _c885
  _c886
  _c887
  _c888
  _c889
  _c89
  _c890
  _c891
  _c892
  _c893
  _c894
  _c895
  _c896
  _c897
  _c898
  _c9
  _c90
  _c900
  _c901
  _c902
  _c903
  _c904
  _c905
  _c906
  _c907
  _c908
  _c909
  _c911
  _c912
  _c913
  _c914
  _c915
  _c916
  _c917
  _c918
  _c919
  _c92
  _c921
  _c922
  _c923
  _c924
  _c925
  _c926
  _c927
  _c928
  _c929
  _c93
  _c931
  _c932
  _c933
  _c934
  _c935
  _c936
  _c937
  _c938
  _c939
  _c94
  _c941
  _c942
  _c943
  _c944
  _c945
  _c946
  _c947
  _c948
  _c949
  _c95
  _c951
  _c952
  _c953
  _c954
  _c955
  _c956
  _c957
  _c958
  _c959
  _c96
  _c961
  _c962
  _c963
  _c964
  _c965
  _c966
  _c967
  _c968
  _c969
  _c97
  _c971
  _c972
  _c973
  _c974
  _c975
  _c976
  _c977
  _c978
  _c979
  _c98
  _c981
  _c982
  _c983
  _c984
  _c985
  _c986
  _c987
  _c988
  _c989
  _c99
  _c991
  _c992
  _c993
  _c994
  _c995
  _c996
  _c997
  _c998
  _c999 )
